Welcome to the CBC MILP Solver 
Version: 2.10.12 
Build Date: Aug 20 2024 

command line - /opt/homebrew/bin/cbc computational_data/real_data/lp/penguins_trial_006_margin.lp seconds 10.0 solve solu computational_data/real_data/solutions/penguins_trial_006_margin.sol (default strategy 1)
 CoinLpIO::readLp(): Maximization problem reformulated as minimization
Coin0009I Switching back to maximization to get correct duals etc
seconds was changed from 1e+100 to 10
Continuous objective value is 65.5078 - 0.00 seconds
Cgl0003I 0 fixed, 0 tightened bounds, 75 strengthened rows, 0 substitutions
Cgl0003I 0 fixed, 0 tightened bounds, 59 strengthened rows, 0 substitutions
Cgl0003I 0 fixed, 0 tightened bounds, 56 strengthened rows, 0 substitutions
Cgl0003I 0 fixed, 0 tightened bounds, 53 strengthened rows, 0 substitutions
Cgl0003I 0 fixed, 0 tightened bounds, 50 strengthened rows, 0 substitutions
Cgl0003I 0 fixed, 0 tightened bounds, 24 strengthened rows, 0 substitutions
Cgl0003I 0 fixed, 0 tightened bounds, 16 strengthened rows, 0 substitutions
Cgl0003I 0 fixed, 0 tightened bounds, 12 strengthened rows, 0 substitutions
Cgl0003I 0 fixed, 0 tightened bounds, 9 strengthened rows, 0 substitutions
Cgl0004I processed model has 64 rows, 27 columns (27 integer (26 of which binary)) and 605 elements
Cbc0038I Initial state - 5 integers unsatisfied sum - 2
Cbc0038I Pass   1: suminf.    0.33333 (1) obj. 62.6745 iterations 5
Cbc0038I Solution found of 62.0078
Cbc0038I Cleaned solution of 62.0078
Cbc0038I Before mini branch and bound, 22 integers at bound fixed and 0 continuous
Cbc0038I Full problem 64 rows 27 columns, reduced to 0 rows 0 columns
Cbc0038I Mini branch and bound did not improve solution (0.01 seconds)
Cbc0038I Round again with cutoff of 62.2411
Cbc0038I Pass   2: suminf.    0.33333 (1) obj. 62.6745 iterations 0
Cbc0038I Pass   3: suminf.    0.23334 (1) obj. 62.2411 iterations 6
Cbc0038I Pass   4: suminf.    0.50000 (1) obj. 62.5078 iterations 1
Cbc0038I Pass   5: suminf.    0.90001 (3) obj. 62.2411 iterations 8
Cbc0038I Pass   6: suminf.    0.90001 (3) obj. 62.2411 iterations 1
Cbc0038I Pass   7: suminf.    1.23334 (3) obj. 62.2411 iterations 3
Cbc0038I Pass   8: suminf.    0.90001 (3) obj. 62.2411 iterations 1
Cbc0038I Pass   9: suminf.    1.23334 (3) obj. 62.2411 iterations 7
Cbc0038I Pass  10: suminf.    1.23334 (3) obj. 62.2411 iterations 4
Cbc0038I Pass  11: suminf.    1.27778 (3) obj. 62.2856 iterations 1
Cbc0038I Pass  12: suminf.    0.90001 (3) obj. 62.2411 iterations 8
Cbc0038I Pass  13: suminf.    0.90001 (3) obj. 62.2411 iterations 2
Cbc0038I Pass  14: suminf.    1.23334 (3) obj. 62.2411 iterations 2
Cbc0038I Pass  15: suminf.    0.90001 (3) obj. 62.2411 iterations 1
Cbc0038I Pass  16: suminf.    1.23336 (3) obj. 62.2411 iterations 10
Cbc0038I Pass  17: suminf.    1.23336 (3) obj. 62.2411 iterations 6
Cbc0038I Pass  18: suminf.    1.27778 (3) obj. 62.2856 iterations 1
Cbc0038I Pass  19: suminf.    2.23336 (6) obj. 62.2411 iterations 11
Cbc0038I Pass  20: suminf.    2.23336 (6) obj. 62.2411 iterations 4
Cbc0038I Pass  21: suminf.    2.11111 (5) obj. 63.1189 iterations 1
Cbc0038I Pass  22: suminf.    1.23336 (3) obj. 62.2411 iterations 11
Cbc0038I Pass  23: suminf.    1.27778 (3) obj. 62.2856 iterations 3
Cbc0038I Pass  24: suminf.    2.23336 (6) obj. 62.2411 iterations 4
Cbc0038I Pass  25: suminf.    1.90001 (5) obj. 62.2411 iterations 10
Cbc0038I Pass  26: suminf.    1.90001 (5) obj. 62.2411 iterations 2
Cbc0038I Pass  27: suminf.    1.23334 (3) obj. 62.2411 iterations 4
Cbc0038I Pass  28: suminf.    0.90001 (3) obj. 62.2411 iterations 1
Cbc0038I Pass  29: suminf.    0.90001 (3) obj. 62.2411 iterations 1
Cbc0038I Pass  30: suminf.    1.90001 (5) obj. 62.2411 iterations 10
Cbc0038I Pass  31: suminf.    1.90001 (5) obj. 62.2411 iterations 1
Cbc0038I No solution found this major pass
Cbc0038I Before mini branch and bound, 11 integers at bound fixed and 0 continuous
Cbc0038I Full problem 64 rows 27 columns, reduced to 26 rows 16 columns
Cbc0038I Mini branch and bound did not improve solution (0.01 seconds)
Cbc0038I After 0.01 seconds - Feasibility pump exiting with objective of 62.0078 - took 0.00 seconds
Cbc0012I Integer solution of 62.007807 found by feasibility pump after 0 iterations and 0 nodes (0.01 seconds)
Cbc0031I 5 added rows had average density of 19
Cbc0013I At root node, 18 cuts changed objective from 64.34114 to 62.007807 in 1 passes
Cbc0014I Cut generator 0 (Probing) - 0 row cuts average 0.0 elements, 0 column cuts (0 active)  in 0.000 seconds - new frequency is -100
Cbc0014I Cut generator 1 (Gomory) - 5 row cuts average 19.0 elements, 0 column cuts (0 active)  in 0.000 seconds - new frequency is 1
Cbc0014I Cut generator 2 (Knapsack) - 5 row cuts average 14.2 elements, 0 column cuts (0 active)  in 0.000 seconds - new frequency is 1
Cbc0014I Cut generator 3 (Clique) - 0 row cuts average 0.0 elements, 0 column cuts (0 active)  in 0.000 seconds - new frequency is -100
Cbc0014I Cut generator 4 (MixedIntegerRounding2) - 0 row cuts average 0.0 elements, 0 column cuts (0 active)  in 0.000 seconds - new frequency is -100
Cbc0014I Cut generator 5 (FlowCover) - 0 row cuts average 0.0 elements, 0 column cuts (0 active)  in 0.000 seconds - new frequency is -100
Cbc0014I Cut generator 6 (TwoMirCuts) - 7 row cuts average 17.9 elements, 0 column cuts (0 active)  in 0.000 seconds - new frequency is -100
Cbc0014I Cut generator 7 (ZeroHalf) - 1 row cuts average 13.0 elements, 0 column cuts (0 active)  in 0.000 seconds - new frequency is -100
Cbc0001I Search completed - best objective 62.007807, took 0 iterations and 0 nodes (0.01 seconds)
Cbc0035I Maximum depth 0, 0 variables fixed on reduced cost
Cuts at root node changed objective from 64.3411 to 62.0078
Probing was tried 1 times and created 0 cuts of which 0 were active after adding rounds of cuts (0.000 seconds)
Gomory was tried 1 times and created 5 cuts of which 0 were active after adding rounds of cuts (0.000 seconds)
Knapsack was tried 1 times and created 5 cuts of which 0 were active after adding rounds of cuts (0.000 seconds)
Clique was tried 1 times and created 0 cuts of which 0 were active after adding rounds of cuts (0.000 seconds)
MixedIntegerRounding2 was tried 1 times and created 0 cuts of which 0 were active after adding rounds of cuts (0.000 seconds)
FlowCover was tried 1 times and created 0 cuts of which 0 were active after adding rounds of cuts (0.000 seconds)
TwoMirCuts was tried 1 times and created 7 cuts of which 0 were active after adding rounds of cuts (0.000 seconds)
ZeroHalf was tried 1 times and created 1 cuts of which 0 were active after adding rounds of cuts (0.000 seconds)

Result - Optimal solution found

Objective value:                62.00780700
Enumerated nodes:               0
Total iterations:               0
Time (CPU seconds):             0.01
Time (Wallclock seconds):       0.01

Total time (CPU seconds):       0.01   (Wallclock seconds):       0.01

